10
0, 601, 145, 831, 459, 99, 678, 638, 862, 796
601, 0, 570, 235, 321, 512, 487, 245, 368, 199
145, 570, 0, 785, 358, 183, 552, 663, 879, 753
831, 235, 785, 0, 475, 744, 538, 386, 365, 36
459, 321, 358, 475, 0, 412, 249, 527, 689, 449
99, 512, 183, 744, 412, 0, 648, 539, 763, 709
678, 487, 552, 538, 249, 648, 0, 726, 843, 526
638, 245, 663, 386, 527, 539, 726, 0, 224, 356
862, 368, 879, 365, 689, 763, 843, 224, 0, 353
796, 199, 753, 36, 449, 709, 526, 356, 353, 0
